model.lp
\ Model min_flip_model
\ LP format - for model browsing. Use MPS format to capture full model detail.
Minimize
  X[0,0] + X[0,1] + X[0,2] + X[0,3] + X[1,0] + X[1,1] + X[1,2] + X[2,0]
   + X[2,2] + X[2,3] + X[3,1] + X[3,2] + X[3,3] + X[4,1] + X[4,2] + X[4,3]
   + 0 B01[0,0] + 0 B01[1,0] + 0 B01[1,1] + 0 B01[2,0] + 0 B01[2,1]
   + 0 B01[2,2] + 0 B01[3,0] + 0 B01[3,1] + 0 B01[3,2] + 0 B01[3,3]
   + 0 B10[0,0] + 0 B10[1,0] + 0 B10[1,1] + 0 B10[2,0] + 0 B10[2,1]
   + 0 B10[2,2] + 0 B10[3,0] + 0 B10[3,1] + 0 B10[3,2] + 0 B10[3,3]
   + 0 B11[0,0] + 0 B11[1,0] + 0 B11[1,1] + 0 B11[2,0] + 0 B11[2,1]
   + 0 B11[2,2] + 0 B11[3,0] + 0 B11[3,1] + 0 B11[3,2] + 0 B11[3,3]
Subject To
 R0: - X[0,0] + X[0,1] - B01[0,1] <= 0
 R1: - X[1,0] + X[1,1] - B01[0,1] <= 0
 R2: - X[2,0] + X[2,1] - B01[0,1] <= 0
 R3: - X[3,0] + X[3,1] - B01[0,1] <= 0
 R4: - X[4,0] + X[4,1] - B01[0,1] <= 0
 R5: - X[5,0] + X[5,1] - B01[0,1] <= 0
 R6: - X[0,0] + X[0,2] - B01[0,2] <= 0
 R7: - X[1,0] + X[1,2] - B01[0,2] <= 0
 R8: - X[2,0] + X[2,2] - B01[0,2] <= 0
 R9: - X[3,0] + X[3,2] - B01[0,2] <= 0
 R10: - X[4,0] + X[4,2] - B01[0,2] <= 0
 R11: - X[5,0] + X[5,2] - B01[0,2] <= 0
 R12: - X[0,0] + X[0,3] - B01[0,3] <= 0
 R13: - X[1,0] + X[1,3] - B01[0,3] <= 0
 R14: - X[2,0] + X[2,3] - B01[0,3] <= 0
 R15: - X[3,0] + X[3,3] - B01[0,3] <= 0
 R16: - X[4,0] + X[4,3] - B01[0,3] <= 0
 R17: - X[5,0] + X[5,3] - B01[0,3] <= 0
 R18: - X[0,1] + X[0,2] - B01[1,2] <= 0
 R19: - X[1,1] + X[1,2] - B01[1,2] <= 0
 R20: - X[2,1] + X[2,2] - B01[1,2] <= 0
 R21: - X[3,1] + X[3,2] - B01[1,2] <= 0
 R22: - X[4,1] + X[4,2] - B01[1,2] <= 0
 R23: - X[5,1] + X[5,2] - B01[1,2] <= 0
 R24: - X[0,1] + X[0,3] - B01[1,3] <= 0
 R25: - X[1,1] + X[1,3] - B01[1,3] <= 0
 R26: - X[2,1] + X[2,3] - B01[1,3] <= 0
 R27: - X[3,1] + X[3,3] - B01[1,3] <= 0
 R28: - X[4,1] + X[4,3] - B01[1,3] <= 0
 R29: - X[5,1] + X[5,3] - B01[1,3] <= 0
 R30: - X[0,2] + X[0,3] - B01[2,3] <= 0
 R31: - X[1,2] + X[1,3] - B01[2,3] <= 0
 R32: - X[2,2] + X[2,3] - B01[2,3] <= 0
 R33: - X[3,2] + X[3,3] - B01[2,3] <= 0
 R34: - X[4,2] + X[4,3] - B01[2,3] <= 0
 R35: - X[5,2] + X[5,3] - B01[2,3] <= 0
 R36: X[0,0] - X[0,1] - B10[0,1] <= 0
 R37: X[1,0] - X[1,1] - B10[0,1] <= 0
 R38: X[2,0] - X[2,1] - B10[0,1] <= 0
 R39: X[3,0] - X[3,1] - B10[0,1] <= 0
 R40: X[4,0] - X[4,1] - B10[0,1] <= 0
 R41: X[5,0] - X[5,1] - B10[0,1] <= 0
 R42: X[0,0] - X[0,2] - B10[0,2] <= 0
 R43: X[1,0] - X[1,2] - B10[0,2] <= 0
 R44: X[2,0] - X[2,2] - B10[0,2] <= 0
 R45: X[3,0] - X[3,2] - B10[0,2] <= 0
 R46: X[4,0] - X[4,2] - B10[0,2] <= 0
 R47: X[5,0] - X[5,2] - B10[0,2] <= 0
 R48: X[0,0] - X[0,3] - B10[0,3] <= 0
 R49: X[1,0] - X[1,3] - B10[0,3] <= 0
 R50: X[2,0] - X[2,3] - B10[0,3] <= 0
 R51: X[3,0] - X[3,3] - B10[0,3] <= 0
 R52: X[4,0] - X[4,3] - B10[0,3] <= 0
 R53: X[5,0] - X[5,3] - B10[0,3] <= 0
 R54: X[0,1] - X[0,2] - B10[1,2] <= 0
 R55: X[1,1] - X[1,2] - B10[1,2] <= 0
 R56: X[2,1] - X[2,2] - B10[1,2] <= 0
 R57: X[3,1] - X[3,2] - B10[1,2] <= 0
 R58: X[4,1] - X[4,2] - B10[1,2] <= 0
 R59: X[5,1] - X[5,2] - B10[1,2] <= 0
 R60: X[0,1] - X[0,3] - B10[1,3] <= 0
 R61: X[1,1] - X[1,3] - B10[1,3] <= 0
 R62: X[2,1] - X[2,3] - B10[1,3] <= 0
 R63: X[3,1] - X[3,3] - B10[1,3] <= 0
 R64: X[4,1] - X[4,3] - B10[1,3] <= 0
 R65: X[5,1] - X[5,3] - B10[1,3] <= 0
 R66: X[0,2] - X[0,3] - B10[2,3] <= 0
 R67: X[1,2] - X[1,3] - B10[2,3] <= 0
 R68: X[2,2] - X[2,3] - B10[2,3] <= 0
 R69: X[3,2] - X[3,3] - B10[2,3] <= 0
 R70: X[4,2] - X[4,3] - B10[2,3] <= 0
 R71: X[5,2] - X[5,3] - B10[2,3] <= 0
 R72: X[0,0] + X[0,1] - B11[0,1] <= 1
 R73: X[1,0] + X[1,1] - B11[0,1] <= 1
 R74: X[2,0] + X[2,1] - B11[0,1] <= 1
 R75: X[3,0] + X[3,1] - B11[0,1] <= 1
 R76: X[4,0] + X[4,1] - B11[0,1] <= 1
 R77: X[5,0] + X[5,1] - B11[0,1] <= 1
 R78: X[0,0] + X[0,2] - B11[0,2] <= 1
 R79: X[1,0] + X[1,2] - B11[0,2] <= 1
 R80: X[2,0] + X[2,2] - B11[0,2] <= 1
 R81: X[3,0] + X[3,2] - B11[0,2] <= 1
 R82: X[4,0] + X[4,2] - B11[0,2] <= 1
 R83: X[5,0] + X[5,2] - B11[0,2] <= 1
 R84: X[0,0] + X[0,3] - B11[0,3] <= 1
 R85: X[1,0] + X[1,3] - B11[0,3] <= 1
 R86: X[2,0] + X[2,3] - B11[0,3] <= 1
 R87: X[3,0] + X[3,3] - B11[0,3] <= 1
 R88: X[4,0] + X[4,3] - B11[0,3] <= 1
 R89: X[5,0] + X[5,3] - B11[0,3] <= 1
 R90: X[0,1] + X[0,2] - B11[1,2] <= 1
 R91: X[1,1] + X[1,2] - B11[1,2] <= 1
 R92: X[2,1] + X[2,2] - B11[1,2] <= 1
 R93: X[3,1] + X[3,2] - B11[1,2] <= 1
 R94: X[4,1] + X[4,2] - B11[1,2] <= 1
 R95: X[5,1] + X[5,2] - B11[1,2] <= 1
 R96: X[0,1] + X[0,3] - B11[1,3] <= 1
 R97: X[1,1] + X[1,3] - B11[1,3] <= 1
 R98: X[2,1] + X[2,3] - B11[1,3] <= 1
 R99: X[3,1] + X[3,3] - B11[1,3] <= 1
 R100: X[4,1] + X[4,3] - B11[1,3] <= 1
 R101: X[5,1] + X[5,3] - B11[1,3] <= 1
 R102: X[0,2] + X[0,3] - B11[2,3] <= 1
 R103: X[1,2] + X[1,3] - B11[2,3] <= 1
 R104: X[2,2] + X[2,3] - B11[2,3] <= 1
 R105: X[3,2] + X[3,3] - B11[2,3] <= 1
 R106: X[4,2] + X[4,3] - B11[2,3] <= 1
 R107: X[5,2] + X[5,3] - B11[2,3] <= 1
 R108: B01[0,1] + B10[0,1] + B11[0,1] <= 2
 R109: B01[0,2] + B10[0,2] + B11[0,2] <= 2
 R110: B01[0,3] + B10[0,3] + B11[0,3] <= 2
 R111: B01[1,2] + B10[1,2] + B11[1,2] <= 2
 R112: B01[1,3] + B10[1,3] + B11[1,3] <= 2
 R113: B01[2,3] + B10[2,3] + B11[2,3] <= 2
 global_constraint: - X[1,3] - X[2,1] - X[3,0] - X[4,0] - X[5,0] - X[5,1]
   - X[5,2] - X[5,3] = -7
 X_3_initial: X[3,0] - X[4,0] <= 0
 R116: 0.5 X[3,0] - 0.5 X[4,0] + y3[0,0] <= 0.5
 R117: 0.5 X[3,1] - 0.5 X[4,1] + y3[0,1] <= 0.5
 R118: 0.5 X[3,2] - 0.5 X[4,2] + y3[0,2] <= 0.5
 R119: 0.5 X[3,3] - 0.5 X[4,3] + y3[0,3] <= 0.5
 R120: X[3,1] - X[4,1] - y3[0,0] <= 0
 R121: X[3,2] - X[4,2] - y3[0,0] - y3[0,1] <= 0
 R122: X[3,3] - X[4,3] - y3[0,0] - y3[0,1] - y3[0,2] <= 0
Bounds
Binaries
 X[0,0] X[0,1] X[0,2] X[0,3] X[1,0] X[1,1] X[1,2] X[1,3] X[2,0] X[2,1]
 X[2,2] X[2,3] X[3,0] X[3,1] X[3,2] X[3,3] X[4,0] X[4,1] X[4,2] X[4,3]
 X[5,0] X[5,1] X[5,2] X[5,3] B01[0,0] B01[0,1] B01[0,2] B01[0,3] B01[1,0]
 B01[1,1] B01[1,2] B01[1,3] B01[2,0] B01[2,1] B01[2,2] B01[2,3] B01[3,0]
 B01[3,1] B01[3,2] B01[3,3] B10[0,0] B10[0,1] B10[0,2] B10[0,3] B10[1,0]
 B10[1,1] B10[1,2] B10[1,3] B10[2,0] B10[2,1] B10[2,2] B10[2,3] B10[3,0]
 B10[3,1] B10[3,2] B10[3,3] B11[0,0] B11[0,1] B11[0,2] B11[0,3] B11[1,0]
 B11[1,1] B11[1,2] B11[1,3] B11[2,0] B11[2,1] B11[2,2] B11[2,3] B11[3,0]
 B11[3,1] B11[3,2] B11[3,3] y3[0,0] y3[0,1] y3[0,2] y3[0,3]
End
